(set-logic LIA)
(set-info :license "https://creativecommons.org/licenses/by/4.0/")
(set-info :status "unknown")
(set-info :smt-lib-version "2.6")
(declare-fun c_main_~i~0 () Int)
(assert
  (and
    (exists ((v_main_~c~0_17 Int) (v_main_~c~0_19 Int) (v_main_~c~0_18 Int) (reminder_1 Int) (reminder_0 Int) (reminder_3 Int) (reminder_2 Int) (reminder_5 Int) (reminder_4 Int))
      (and
        (<= (* 1 reminder_5) 2147483647)
        (<= (* (- 1) reminder_4) (- 48))
        (<= (* 1 reminder_4) 57)
        (<= (* 1 reminder_3) 2147483647)
        (<= (* 1 reminder_2) 2147483647)
        (<= (* (- 1) v_main_~c~0_17) 128)
        (<= (* 1 v_main_~c~0_17) 127)
        (<= (* (- 1) reminder_1) (- 48))
        (<= (* 1 reminder_1) 57)
        (<= (* (- 1) reminder_0) (- 48))
        (<= (* 1 reminder_0) 57)
        (<= (+ (* (- 1) c_main_~i~0) (* 1 reminder_5)) 0)
        (<= (+ (* (- 1) v_main_~c~0_17) (* 256 reminder_1)) 0)
        (<= (+ (* 1 v_main_~c~0_17) (* (- 256) reminder_1)) 255)
        (<= (+ (* (- 1) reminder_1) (* 4294967296 reminder_2)) 4294967248)
        (<= (+ (* 1 reminder_1) (* (- 4294967296) reminder_2)) 47)
        (<= (+ (* (- 1) reminder_0) (* (- 10) reminder_2) (* 4294967296 reminder_3)) 4294967248)
        (<= (+ (* 1 reminder_0) (* 10 reminder_2) (* (- 4294967296) reminder_3)) 47)
        (<= (+ (* (- 10) reminder_3) (* (- 1) reminder_4) (* 4294967296 reminder_5)) 4294967248)
        (<= (+ (* 10 reminder_3) (* 1 reminder_4) (* (- 4294967296) reminder_5)) 47)
        (<= (+ (* (- 1) v_main_~c~0_19) (* 256 reminder_4)) 0)
        (<= (+ (* 1 v_main_~c~0_19) (* (- 256) reminder_4)) 255)
        (<= (+ (* (- 1) v_main_~c~0_18) (* 256 reminder_0)) 0)
        (<= (+ (* 1 v_main_~c~0_18) (* (- 256) reminder_0)) 255)
      )
    )
    (not
      (and
        (not
          (exists ((v_prenex_4 Int) (v_prenex_3 Int) (reminder_6 Int) (reminder_7 Int) (reminder_8 Int) (reminder_9 Int))
            (and
              (not
                (or
                  (<= (* 1 reminder_9) 2147483647)
                  (<= (* 1 reminder_7) 47)
                  (<= (* (- 1) reminder_6) (- 58))
                  (<= (* 1 reminder_8) 2147483647)
                  (<= (* 1 reminder_6) 47)
                  (<= (* (- 1) reminder_7) (- 58))
                  (<= (* (- 1) reminder_9) (- 4294967296))
                )
              )
              (<= (+ (* (- 1) v_prenex_4) (* 256 reminder_7)) 0)
              (<= (+ (* 1 v_prenex_4) (* (- 256) reminder_7)) 255)
              (<= (+ (* (- 10) c_main_~i~0) (* (- 1) reminder_7) (* 4294967296 reminder_8)) 4294967248)
              (<= (+ (* 10 c_main_~i~0) (* 1 reminder_7) (* (- 4294967296) reminder_8)) 47)
              (<= (+ (* (- 1) reminder_6) (* (- 10) reminder_8) (* 4294967296 reminder_9)) 4294967248)
              (<= (+ (* 1 reminder_6) (* 10 reminder_8) (* (- 4294967296) reminder_9)) 47)
              (<= (+ (* (- 1) v_prenex_3) (* 256 reminder_6)) 0)
              (<= (+ (* 1 v_prenex_3) (* (- 256) reminder_6)) 255)
            )
          )
        )
        (not
          (exists ((v_prenex_2 Int) (main_~c~0 Int) (reminder_10 Int) (reminder_11 Int) (reminder_12 Int) (reminder_13 Int))
            (and
              (not
                (or
                  (<= (* 1 reminder_10) 47)
                  (<= (* 1 reminder_13) 2147483647)
                  (<= (* (- 1) reminder_10) (- 58))
                  (<= (* (- 1) reminder_11) (- 58))
                  (<= (* (- 1) reminder_12) (- 2147483648))
                  (<= (* (- 1) reminder_13) (- 4294967296))
                  (<= (* 1 reminder_11) 47)
                )
              )
              (<= (+ (* (- 1) v_prenex_2) (* 256 reminder_11)) 0)
              (<= (+ (* 1 v_prenex_2) (* (- 256) reminder_11)) 255)
              (<= (+ (* (- 1) reminder_11) (* (- 10) reminder_12) (* 4294967296 reminder_13)) 4294967248)
              (<= (+ (* 1 reminder_11) (* 10 reminder_12) (* (- 4294967296) reminder_13)) 47)
              (<= (+ (* (- 1) main_~c~0) (* 256 reminder_10)) 0)
              (<= (+ (* 1 main_~c~0) (* (- 256) reminder_10)) 255)
              (<= (+ (* (- 10) c_main_~i~0) (* (- 1) reminder_10) (* 4294967296 reminder_12)) 4294967248)
              (<= (+ (* 10 c_main_~i~0) (* 1 reminder_10) (* (- 4294967296) reminder_12)) 47)
            )
          )
        )
      )
    )
  )
)
(check-sat)

